NAME          ClpDefau
ROWS
 N  OBJROW
 L  R_204_0
 L  R_204_1
 L  R_204_2
 L  R_204_3
 L  R_204_4
 L  R_204_5
 L  R_204_6
 L  R_204_7
COLUMNS
    x_0       OBJROW     -8.        
    x_1       OBJROW     -12.          R_204_7   3.          
    x_2       OBJROW     -11.          R_204_1   6.          
    x_2       R_204_2   9.             R_204_6   8.          
    x_3       OBJROW     -47.          R_204_7   7.          
    x_4       OBJROW     -22.       
    x_5       OBJROW     -95.       
    x_6       OBJROW     -86.          R_204_2   10.         
    x_7       OBJROW     -40.       
    x_8       OBJROW     -33.          R_204_1   6.          
    x_8       R_204_4   2.             R_204_5   1.          
    x_9       OBJROW     -78.          R_204_1   9.          
    x_9       R_204_2   5.          
    x_10      OBJROW     -28.          R_204_0   6.          
    x_10      R_204_3   2.             R_204_5   1.          
    x_10      R_204_7   3.          
    x_11      OBJROW     -78.          R_204_2   10.         
    x_11      R_204_3   4.             R_204_4   1.          
    x_11      R_204_5   10.         
    x_12      OBJROW     -5.           R_204_5   5.          
    x_13      OBJROW     -75.          R_204_5   8.          
    x_14      OBJROW     -88.       
    x_15      OBJROW     -21.          R_204_5   3.          
    x_15      R_204_6   4.          
RHS
    RHS       R_204_0   21.            R_204_1   16.         
    RHS       R_204_2   17.            R_204_3   17.         
    RHS       R_204_4   21.            R_204_5   19.         
    RHS       R_204_6   16.            R_204_7   18.         
BOUNDS
 UI BOUND     x_0       100.        
 UI BOUND     x_1       100.        
 UI BOUND     x_2       100.        
 UI BOUND     x_3       100.        
 UI BOUND     x_4       100.        
 UI BOUND     x_5       100.        
 UI BOUND     x_6       100.        
 UI BOUND     x_7       100.        
 UI BOUND     x_8       100.        
 UI BOUND     x_9       100.        
 UI BOUND     x_10      100.        
 UI BOUND     x_11      100.        
 UI BOUND     x_12      100.        
 UI BOUND     x_13      100.        
 UI BOUND     x_14      100.        
 UI BOUND     x_15      100.        
ENDATA
